; =========================================
; Z3 Solver Result
; =========================================

; STATUS: SAT

(set-logic QF_LIA)

(model
  (define-fun C4_VM3 () Int 0)
  (define-fun C1_VM8 () Int 1)
  (define-fun C3_VM5 () Int 0)
  (define-fun C4_VM5 () Int 0)
  (define-fun C5_VM4 () Int 0)
  (define-fun C4_VM6 () Int 0)
  (define-fun C1_VM3 () Int 1)
  (define-fun C4_VM1 () Int 0)
  (define-fun PriceProv2 () Int 210)
  (define-fun PriceProv6 () Int 116)
  (define-fun StorageProv5 () Int 2000)
  (define-fun MemProv6 () Int 3750)
  (define-fun C3_VM1 () Int 0)
  (define-fun PriceProv7 () Int 210)
  (define-fun C1_VM1 () Int 1)
  (define-fun C1_VM6 () Int 0)
  (define-fun C2_VM7 () Int 0)
  (define-fun C3_VM3 () Int 0)
  (define-fun StorageProv3 () Int 2000)
  (define-fun StorageProv4 () Int 2000)
  (define-fun PriceProv3 () Int 116)
  (define-fun PriceProv1 () Int 116)
  (define-fun ProcProv5 () Int 2)
  (define-fun MemProv8 () Int 3750)
  (define-fun ProcProv8 () Int 2)
  (define-fun C4_VM2 () Int 0)
  (define-fun C2_VM8 () Int 0)
  (define-fun C4_VM4 () Int 0)
  (define-fun C1_VM2 () Int 0)
  (define-fun PriceProv5 () Int 116)
  (define-fun StorageProv1 () Int 2000)
  (define-fun C4_VM8 () Int 0)
  (define-fun C5_VM1 () Int 0)
  (define-fun VM6Type () Int 433)
  (define-fun VM7Type () Int 341)
  (define-fun PriceProv8 () Int 116)
  (define-fun ProcProv3 () Int 2)
  (define-fun StorageProv6 () Int 2000)
  (define-fun C2_VM3 () Int 0)
  (define-fun StorageProv7 () Int 2000)
  (define-fun C5_VM2 () Int 1)
  (define-fun C5_VM3 () Int 0)
  (define-fun MemProv2 () Int 7500)
  (define-fun VM3Type () Int 433)
  (define-fun MemProv5 () Int 3750)
  (define-fun ProcProv4 () Int 4)
  (define-fun C4_VM7 () Int 0)
  (define-fun VM2Type () Int 341)
  (define-fun C3_VM4 () Int 1)
  (define-fun MemProv1 () Int 3750)
  (define-fun C2_VM4 () Int 0)
  (define-fun C3_VM8 () Int 0)
  (define-fun VM1Type () Int 433)
  (define-fun VM5Type () Int 433)
  (define-fun VM8Type () Int 433)
  (define-fun C1_VM5 () Int 0)
  (define-fun C2_VM2 () Int 0)
  (define-fun C1_VM7 () Int 0)
  (define-fun MemProv3 () Int 3750)
  (define-fun MemProv4 () Int 7500)
  (define-fun C3_VM6 () Int 0)
  (define-fun ProcProv7 () Int 4)
  (define-fun StorageProv8 () Int 2000)
  (define-fun C2_VM1 () Int 0)
  (define-fun C3_VM2 () Int 0)
  (define-fun C5_VM6 () Int 0)
  (define-fun ProcProv1 () Int 2)
  (define-fun C5_VM5 () Int 0)
  (define-fun ProcProv2 () Int 4)
  (define-fun ProcProv6 () Int 2)
  (define-fun C5_VM8 () Int 0)
  (define-fun VM4Type () Int 341)
  (define-fun C1_VM4 () Int 0)
  (define-fun PriceProv4 () Int 210)
  (define-fun C5_VM7 () Int 1)
  (define-fun C2_VM5 () Int 1)
  (define-fun StorageProv2 () Int 2000)
  (define-fun C3_VM7 () Int 0)
  (define-fun C2_VM6 () Int 1)
  (define-fun MemProv7 () Int 7500)
)

; Optimized objective values
(define-fun objective1 () Int 1210)

; =========================================
; Z3 Statistics (-st equivalent)
; =========================================

conflicts: 163645
decisions: 507997
propagations: 242813797
binary propagations: 238566783
restarts: 774
final checks: 97
added eqs: 28995760
mk clause: 48956625
mk clause binary: 55890
del clause: 48952427
minimized lits: 35962652
num checks: 76
mk bool var: 309521
pb resolves: 3595
pb conflicts: 4183
pb propagations: 103380
pb predicates: 7
arith eq adapter: 23445
arith-lower: 74064269
arith-upper: 32878088
arith-conflicts: 27458
arith-bound-propagations-lp: 111906729
arith-diseq: 52505048
arith-make-feasible: 526231
arith-max-columns: 591
arith-max-rows: 26
arith-fixed-eqs: 42507
bv dynamic diseqs: 48746827
bv bit2core: 736241
bv->core eq: 172
rlimit count: 714951134
max memory: 58.59
memory: 52.02
num allocs: 49794608333.0
time: 93.596

; End of SMT2LIB result file
